826
1   1   65   184  0 18 89 6 94 95 87 97 98 91 16 61 5 0
1   2   90   158  0 96 13 58 40 2 57 15 43 42 85 93 0
1   3   77   165  0 60 99 59 92 37 100 14 44 38 86 17 84 0
1   4   103  158  0 83 8 82 7 62 10 32 90 63 11 19 46 45 0
1   5   0    0    0 0
2   1   77   136  0 54 55 25 39 67 23 56 4 0
2   2   101  178  0 12 26 53 27 69 70 30 50 3 29 24 68 80 0
2   3   65   94   0 21 73 74 41 22 75 72 0
2   4   139  191  0 76 1 31 88 64 49 36 47 48 52 28 0
2   5   109  194  0 77 33 81 9 51 20 66 65 71 35 34 78 79 0